WARNING: for repeatability, setting FPU to use double precision
============================[ Problem Statistics ]=============================
|                                                                             |
|  Number of variables:           100                                         |
|  Number of clauses:             449                                         |
|  Parse time:                   0.00 s                                       |
|  Eliminated clauses:           0.00 Mb                                      |
|  Simplification time:          0.00 s                                       |
|                                                                             |
============================[ Search Statistics ]==============================
| Conflicts |          ORIGINAL         |          LEARNT          | Progress |
|           |    Vars  Clauses Literals |    Limit  Clauses Lit/Cl |          |
===============================================================================
|       100 |      99      448     1351 |      164      100      7 |  0.010 % |
===============================================================================
restarts              : 2
conflicts             : 177            (61437 /sec)
decisions             : 226            (0.00 % random) (78445 /sec)
propagations          : 4439           (1540784 /sec)
conflict literals     : 1329           (14.37 % deleted)
Memory used           : 13.00 MB
CPU time              : 0.002881 s

SATISFIABLE
